Problem:    ParteB
Rows:       8
Columns:    5 (5 integer, 0 binary)
Non-zeros:  15
Status:     INTEGER OPTIMAL
Objective:  z = 11559600 (MAXimum)

   No.   Row name        Activity     Lower bound   Upper bound
------ ------------    ------------- ------------- -------------
     1 z                 1.17096e+07                             
     2 procEq1                  8000                        8000 
     3 procEq2                  7740           100               
     4 procEq3                   520           500               
     5 procEq4                     0            -0             = 
     6 procEq5                     0            -0             = 
     7 procEq6                     0            -0             = 
     8 procEq7                   452                         800 

   No. Column name       Activity     Lower bound   Upper bound
------ ------------    ------------- ------------- -------------
     1 VIP          *           7740             0               
     2 GRAL         *            520             0               
     3 PAQ          *            452             0               
     4 PAQVIP       *            387             0               
     5 PAQGRAL      *             65             0               

Integer feasibility conditions:

KKT.PE: max.abs.err = 0.00e+00 on row 0
        max.rel.err = 0.00e+00 on row 0
        High quality

KKT.PB: max.abs.err = 0.00e+00 on row 0
        max.rel.err = 0.00e+00 on row 0
        High quality

End of output
